%%%mzn-stat: initTime=0.017833636
%%%mzn-stat: objective=209
%%%mzn-stat: nodes=462542
%%%mzn-stat: restarts=583
%%%mzn-stat: peakDepth=735
%%%mzn-stat: solveTime=117.41498763
%%%mzn-stat: variables=1409
%%%mzn-stat: propagators=1079
%%%mzn-stat: failures=204750
%%%mzn-stat: propagations=7254999
%%%mzn-stat: nogoods=204750
%%%mzn-stat: AverageConflictSize=28.78979242979243
%%%mzn-stat: NumUnitNogoodsLearned=208
%%%mzn-stat: AverageLearnedNogoodLength=37.48741391941392
%%%mzn-stat: AverageBacktrackAmount=0
%%%mzn-stat: AverageLbd=21.46264713064713
%%%mzn-stat-end
maxleg = 209;
succ = array1d(1..100,[80, 69, 65, 39, 48, 71, 88, 15, 20, 94, 74, 49, 59, 90, 45, 9, 18, 77, 43, 25, 55, 3, 47, 89, 82, 42, 63, 84, 66, 92, 37, 35, 64, 97, 27, 78, 10, 11, 28, 99, 46, 21, 96, 87, 23, 16, 26, 30, 60, 34, 33, 41, 22, 12, 52, 13, 93, 76, 19, 85, 5, 70, 51, 7, 6, 91, 29, 57, 67, 72, 62, 1, 81, 54, 4, 56, 68, 98, 38, 24, 40, 44, 36, 73, 50, 31, 14, 100, 83, 75, 86, 17, 53, 8, 2, 32, 58, 79, 61, 95]);
% time elapsed: 118.99 s
----------
==========
% time elapsed: 118.99 s
%%%mzn-stat: initTime=0.017833636
%%%mzn-stat: objective=209
%%%mzn-stat: nodes=462542
%%%mzn-stat: restarts=583
%%%mzn-stat: peakDepth=735
%%%mzn-stat: solveTime=117.414991495
%%%mzn-stat: variables=1409
%%%mzn-stat: propagators=1079
%%%mzn-stat: failures=204750
%%%mzn-stat: propagations=7254999
%%%mzn-stat: nogoods=204750
%%%mzn-stat: AverageConflictSize=28.78979242979243
%%%mzn-stat: NumUnitNogoodsLearned=208
%%%mzn-stat: AverageLearnedNogoodLength=37.48741391941392
%%%mzn-stat: AverageBacktrackAmount=0
%%%mzn-stat: AverageLbd=21.46264713064713
%%%mzn-stat-end
